variable eps index 1e-8 #delta value
variable REP index 1
variable rcut index 9.0
variable rcut2 equal ${rcut}*${rcut}

units               real
neigh_modify every 1 delay 1
atom_style          full
bond_style          harmonic
angle_style         harmonic
dihedral_style      harmonic
pair_style          lj/cut/coul/long 9.0
pair_modify         mix arithmetic
pair_modify         tail yes
boundary            p p p
special_bonds       amber
#read_data           data.0.210
#read_data           ../../01-equil/equil.${REP}.data
#change_box          all triclinic
#kspace_style        pppm 1e-4

#reset_timestep 0
